c Reduced graph for p25 generated by Cyril Grelier
p edge 33 108
e 1 3
e 1 6
e 1 14
e 1 15
e 1 18
e 1 21
e 2 4
e 2 9
e 2 10
e 2 15
e 2 17
e 2 23
e 3 6
e 3 14
e 3 20
e 3 22
e 3 23
e 3 32
e 4 5
e 4 15
e 4 17
e 4 19
e 4 23
e 4 26
e 5 19
e 5 20
e 5 26
e 6 12
e 6 14
e 6 29
e 7 11
e 7 14
e 7 21
e 7 26
e 7 28
e 7 30
e 8 10
e 8 12
e 8 18
e 8 24
e 8 25
e 8 27
e 8 28
e 8 30
e 8 31
e 8 33
e 9 10
e 9 13
e 9 22
e 9 33
e 10 12
e 10 18
e 10 24
e 10 30
e 11 14
e 11 25
e 11 29
e 11 30
e 11 32
e 12 18
e 12 24
e 12 29
e 12 30
e 13 16
e 13 17
e 13 22
e 13 24
e 13 33
e 14 30
e 15 17
e 15 18
e 15 21
e 15 23
e 16 17
e 16 19
e 16 24
e 16 31
e 17 23
e 17 24
e 18 21
e 18 24
e 18 30
e 19 26
e 19 31
e 20 22
e 20 23
e 20 32
e 21 26
e 21 28
e 22 23
e 22 32
e 22 33
e 23 32
e 24 30
e 25 27
e 25 28
e 25 29
e 25 31
e 25 32
e 25 33
e 26 28
e 27 28
e 27 31
e 27 33
e 28 31
e 28 33
e 29 32
e 31 33
